(declare-const i1  Int)
(declare-const st1  (Set Int))
(declare-const st4  (Set Int))
(declare-const st6  (Set Int))
(assert (is_singleton (complement (setminus (intersection st6 st1) st6))))
(assert (> 0 (+   (abs (- (card st4) 16))                           i1)))
(check-sat)
